N = 8;
Capacity = 13;
Demand = [6, 5, 3, 4, 6, 2, 2, 7];
Distance = [|
  0, 57, 48, 28, 56, 16, 29, 58, 36
| 57, 0, 47, 79, 87, 52, 84, 12, 62
| 48, 47, 0, 52, 43, 56, 59, 39, 77
| 28, 79, 52, 0, 36, 43, 8, 77, 62
| 56, 87, 43, 36, 0, 71, 44, 81, 93
| 16, 52, 56, 43, 71, 0, 43, 56, 22
| 29, 84, 59, 8, 44, 43, 0, 83, 60
| 58, 12, 39, 77, 81, 56, 83, 0, 69
| 36, 62, 77, 62, 93, 22, 60, 69, 0
|];
